data/solutions/recovery/degenerate/intermediate/binding/degenerate_intermediate_instance38/50.sol
Elapsed time: 0.06
Upper bound: 307152.0
Planning weighted value: 14523853909.0
C[0]=307152.0
C[1]=307106.0
C[2]=306926.0
C[3]=306250.0
C[4]=303097.0
C[5]=296718.0
C[6]=295680.0
C[7]=291890.0
C[8]=286245.0
C[9]=277863.0
C[10]=276368.0
C[11]=270427.0
C[12]=258696.0
C[13]=0.0
C[14]=0.0
C[15]=0.0
y[0]=10
y[1]=8
y[2]=0
y[3]=9
y[4]=1
y[5]=12
y[6]=4
y[7]=10
y[8]=2
y[9]=6
y[10]=11
y[11]=12
y[12]=6
y[13]=1
y[14]=10
y[15]=3
y[16]=1
y[17]=12
y[18]=4
y[19]=7
y[20]=7
y[21]=0
y[22]=11
y[23]=5
y[24]=6
y[25]=8
y[26]=9
y[27]=11
y[28]=2
y[29]=9
y[30]=4
y[31]=2
y[32]=0
y[33]=11
y[34]=11
y[35]=9
y[36]=3
y[37]=1
y[38]=9
y[39]=3
y[40]=2
y[41]=7
y[42]=5
y[43]=6
y[44]=5
y[45]=8
y[46]=3
y[47]=8
y[48]=2
y[49]=3
y[50]=7
y[51]=6
y[52]=7
y[53]=12
y[54]=5
y[55]=10
y[56]=1
y[57]=5
y[58]=1
y[59]=10
y[60]=12
y[61]=0
y[62]=8
y[63]=7
y[64]=12
y[65]=4
