data/solutions/recovery/degenerate/intermediate/binding/degenerate_intermediate_instance38/50.log

Log started (V12.6.3.0) Sun Apr 22 12:38:17 2018

New value for default parallel thread count: 1

Problem '/tmp/tmprSJta3.pyomo.lp' read.
Read time = 0.02 sec. (0.71 ticks)

Problem name         : /tmp/tmprSJta3.pyomo.lp
Objective sense      : Minimize
Variables            :    1074  [Nneg: 1,  Binary: 1056,  General Integer: 17]
Objective nonzeros   :       1
Linear constraints   :     168  [Less: 82,  Equal: 86]
  Nonzeros           :   50853
  RHS nonzeros       :      67

Variables            : Min LB: 0.000000         Max UB: 1.000000       
Objective nonzeros   : Min   : 1.000000         Max   : 1.000000       
Linear constraints   :
  Nonzeros           : Min   : 1.000000         Max   : 117484.0       
  RHS nonzeros       : Min   : 1.000000         Max   : 1.000000       
Tried aggregator 2 times.
MIP Presolve eliminated 125 rows and 839 columns.
Aggregator did 13 substitutions.
Reduced MIP has 30 rows, 222 columns, and 455 nonzeros.
Reduced MIP has 221 binaries, 1 generals, 0 SOSs, and 0 indicators.
Presolve time = 0.00 sec. (3.92 ticks)
Found incumbent of value 1332926.000000 after 0.00 sec. (5.23 ticks)
Probing time = 0.00 sec. (0.29 ticks)
Tried aggregator 1 time.
Reduced MIP has 30 rows, 222 columns, and 455 nonzeros.
Reduced MIP has 221 binaries, 1 generals, 0 SOSs, and 0 indicators.
Presolve time = 0.00 sec. (0.40 ticks)
Probing time = 0.00 sec. (0.29 ticks)
Clique table members: 17.
MIP emphasis: balance optimality and feasibility.
MIP search method: dynamic search.
Parallel mode: none, using 1 thread.
Root relaxation solution time = 0.00 sec. (0.40 ticks)

        Nodes                                         Cuts/
   Node  Left     Objective  IInf  Best Integer    Best Bound    ItCnt     Gap

*     0+    0                      1332926.0000   256784.0000            80.74%
      0     0   291109.0769    23  1332926.0000   291109.0769       62   78.16%
*     0+    0                       340255.0000   291109.0769            14.44%
      0     0   292369.4286    26   340255.0000      Cuts: 14       98   14.07%
      0     0   292370.0000    31   340255.0000      Cuts: 28      176   14.07%
      0     0   292449.3454    35   340255.0000      Cuts: 15      293   14.05%
*     0+    0                       324693.0000   292449.3454             9.93%
      0     0   292835.2678    44   324693.0000      Cuts: 20      419    9.81%
      0     0   294271.5028    36   324693.0000      Cuts: 23      466    9.37%
      0     0   294949.7130    38   324693.0000      Cuts: 15      501    9.16%
      0     0   294949.7130    41   324693.0000      Cuts: 15      553    9.16%
*     0+    0                       323842.0000   294949.7130             8.92%
*     0+    0                       319965.0000   294949.7130             7.82%
*     0+    0                       319095.0000   294949.7130             7.57%
*     0+    0                       319053.0000   294949.7130             7.55%
      0     2   297802.3912    25   319053.0000   298533.8002      553    6.43%
Elapsed time = 0.03 sec. (25.37 ticks, tree = 0.01 MB, solutions = 7)
*    10+   10                       318961.0000   307152.0000             3.70%
*    20+   17                       311629.0000   307152.0000             1.44%
*    20+   17                       311587.0000   307152.0000             1.42%
*    30+    4                       310383.0000   307152.0000             1.04%
*    40+   10                       309097.0000   307152.0000             0.63%
*    50+    2                       307152.0000   307152.0000             0.00%

Implied bound cuts applied:  1
Mixed integer rounding cuts applied:  17
Gomory fractional cuts applied:  1

Root node processing (before b&c):
  Real time             =    0.03 sec. (25.47 ticks)
Sequential b&c:
  Real time             =    0.00 sec. (3.46 ticks)
                          ------------
Total (root+branch&cut) =    0.03 sec. (28.93 ticks)

Solution pool: 13 solutions saved.

MIP - Integer optimal solution:  Objective =  3.0715200000e+05
Solution time =    0.03 sec.  Iterations = 728  Nodes = 50
Deterministic time = 28.93 ticks  (980.25 ticks/sec)


Incumbent solution written to file '/tmp/tmpNN7GiG.cplex.sol'.
